
Gurobi 8.1.1 (win64, Python) logging started 06/24/19 16:44:16

Academic license - for non-commercial use only

Gurobi 8.1.1 (win64, Python) logging started 06/24/19 16:44:22

Academic license - for non-commercial use only

Gurobi 8.1.1 (win64, Python) logging started 06/24/19 16:44:26

Academic license - for non-commercial use only

Gurobi 8.1.1 (win64, Python) logging started 06/24/19 16:46:26

Academic license - for non-commercial use only

Gurobi 8.1.1 (win64, Python) logging started 06/24/19 16:52:14

Academic license - for non-commercial use only

Gurobi 8.1.1 (win64, Python) logging started 06/24/19 16:58:58

Academic license - for non-commercial use only

Gurobi 8.1.1 (win64, Python) logging started 06/24/19 16:59:42

Academic license - for non-commercial use only

Gurobi 8.1.1 (win64, Python) logging started 06/24/19 17:00:02

Academic license - for non-commercial use only

Gurobi 8.1.1 (win64, Python) logging started 06/24/19 17:00:25

Academic license - for non-commercial use only

Gurobi 8.1.1 (win64, Python) logging started 06/24/19 17:06:58

Academic license - for non-commercial use only

Gurobi 8.1.1 (win64, Python) logging started 06/24/19 17:10:00

Academic license - for non-commercial use only

Gurobi 8.1.1 (win64, Python) logging started 06/24/19 17:10:42

Academic license - for non-commercial use only

Gurobi 8.1.1 (win64, Python) logging started 06/24/19 17:10:58

Academic license - for non-commercial use only

Gurobi 8.1.1 (win64, Python) logging started 06/24/19 17:11:22

Academic license - for non-commercial use only

Gurobi 8.1.1 (win64, Python) logging started 06/24/19 17:11:31

Academic license - for non-commercial use only

Gurobi 8.1.1 (win64, Python) logging started 06/24/19 17:12:23

Academic license - for non-commercial use only

Gurobi 8.1.1 (win64, Python) logging started 06/24/19 17:12:36

Academic license - for non-commercial use only

Gurobi 8.1.1 (win64, Python) logging started 06/24/19 17:12:48

Academic license - for non-commercial use only

Gurobi 8.1.1 (win64, Python) logging started 06/24/19 17:27:51

Academic license - for non-commercial use only

Gurobi 8.1.1 (win64, Python) logging started 07/18/19 13:01:07

Academic license - for non-commercial use only

Gurobi 8.1.1 (win64, Python) logging started 07/18/19 17:26:42

Academic license - for non-commercial use only

Gurobi 8.1.1 (win64, Python) logging started 07/18/19 23:24:47

Academic license - for non-commercial use only

Gurobi 8.1.1 (win64, Python) logging started 07/19/19 10:20:28

Academic license - for non-commercial use only

Gurobi 8.1.1 (win64, Python) logging started 07/21/19 22:46:30

Academic license - for non-commercial use only

Gurobi 8.1.1 (win64, Python) logging started 07/23/19 11:32:07

Academic license - for non-commercial use only

Gurobi 8.1.1 (win64, Python) logging started 07/23/19 15:20:27

Academic license - for non-commercial use only

Gurobi 8.1.1 (win64, Python) logging started 07/25/19 11:14:39

Academic license - for non-commercial use only

Gurobi 8.1.1 (win64, Python) logging started 07/26/19 09:03:21

Academic license - for non-commercial use only

Gurobi 8.1.1 (win64, Python) logging started 07/26/19 10:50:38

Academic license - for non-commercial use only

Gurobi 8.1.1 (win64, Python) logging started 07/28/19 14:37:57

Academic license - for non-commercial use only
